
Gurobi 9.5.1 (linux64) logging started Tue 16 Aug 2022 03:04:03 PM MST

Set parameter LogFile to value "/home/local/ASUAD/kmajd1/NNRepLayer_v2/demos/walking_example/global_constraint_upper_10/repair_net/logs/opt_log_multi_7.log"
Gurobi Optimizer version 9.5.1 build v9.5.1rc2 (linux64)
Thread count: 48 physical cores, 96 logical processors, using up to 45 threads
Optimize a model with 16863 rows, 10742 columns and 174975 nonzeros
Model fingerprint: 0x2b356a75
Model has 149 quadratic objective terms
Variable types: 5974 continuous, 4768 integer (4768 binary)
Coefficient statistics:
  Matrix range     [4e-05, 2e+02]
  Objective range  [2e-03, 1e+00]
  QObjective range [1e-02, 1e-02]
  Bounds range     [1e+00, 2e+03]
  RHS range        [1e-06, 2e+02]

Concurrent MIP optimizer: 3 concurrent instances (15 threads per instance)

Presolve removed 426 rows and 64 columns
Presolve time: 0.30s
Presolved: 16437 rows, 10678 columns, 174421 nonzeros
Presolved model has 149 quadratic objective terms
Variable types: 5910 continuous, 4768 integer (4768 binary)
Root relaxation presolve removed 4768 rows and 4768 columns
Root relaxation presolved: 11669 rows, 5910 columns, 160117 nonzeros
Root relaxation presolved model has 149 quadratic objective terms


Root relaxation: objective 2.808258e+01, 7267 iterations, 0.61 seconds (1.25 work units)

    Nodes    |    Current Node    |     Objective Bounds      |     Work
 Expl Unexpl |  Obj  Depth IntInf | Incumbent    BestBd   Gap | It/Node Time

     0     0      -    -    -      189.13455   28.08258  85.2%     -    1s
     0     0      -    -    -      180.15937   28.08258  84.4%     -    5s
     0     2      -    -    -      116.85453   28.08258  76.0%     -   15s
    75    91      -    -    -       31.50331   28.08258  10.9%     -   28s

Instance 1 was solved

Explored 115 nodes (40735 simplex iterations) in 29.05 seconds (57.07 work units)
Thread count was 15 (of 96 available processors)

Solution count 10: 31.5033 31.5126 38.0293 ... 174.577 

Optimal solution found (tolerance 1.10e-01)
Best objective 3.150331338830e+01, best bound 2.808257851001e+01, gap 10.8583%
